73
300
209	3
206	2
204	2
200	1
199	1
197	1
196	1
192	2
189	1
187	1
185	1
183	1
179	1
178	2
175	2
174	1
166	1
165	1
164	1
163	1
162	1
161	1
158	1
157	1
150	1
148	1
143	2
142	2
140	1
138	3
136	2
135	1
134	2
133	2
125	1
124	1
120	2
119	1
117	1
114	1
111	2
108	1
107	2
105	1
103	1
102	4
101	1
99	2
97	1
95	1
92	1
90	1
82	1
80	1
79	1
76	1
74	2
73	1
72	1
66	1
64	3
63	1
62	2
60	1
58	1
56	1
49	2
48	1
45	1
43	1
37	1
35	1
30	2
